<?xml version = "1.0" encoding="UTF-8" standalone="yes"?>
<CPLEXSolution version="1.2">
 <header
   problemName="IloCplex"
   solutionName="p0"
   solutionIndex="-1"
   objectiveValue="31436639"
   solutionTypeValue="3"
   solutionTypeString="primal"
   solutionStatusValue="127"
   solutionStatusString="integer feasible solution"
   solutionMethodString="mip"
   primalFeasible="0"
   dualFeasible="0"
   writeLevel="3"/>
 <quality
   epInt="1.0000000000000001e-05"
   epRHS="9.9999999999999995e-07"
   maxIntInfeas="0"
   maxPrimalInfeas="0"
   maxX="1"
   maxSlack="1"/>
 <variables>
  <variable name="w0_1" index="1" value="1"/>
  <variable name="w0_2" index="2" value="1"/>
  <variable name="w0_4" index="4" value="1"/>
  <variable name="w0_9" index="9" value="1"/>
  <variable name="w0_10" index="10" value="1"/>
  <variable name="w0_13" index="13" value="1"/>
  <variable name="w1_1" index="15" value="1"/>
  <variable name="w1_2" index="16" value="1"/>
  <variable name="w1_4" index="18" value="1"/>
  <variable name="w1_9" index="23" value="1"/>
  <variable name="w1_10" index="24" value="1"/>
  <variable name="w1_13" index="27" value="1"/>
  <variable name="w2_1" index="29" value="1"/>
  <variable name="w2_2" index="30" value="1"/>
  <variable name="w2_4" index="32" value="1"/>
  <variable name="w2_9" index="37" value="1"/>
  <variable name="w2_10" index="38" value="1"/>
  <variable name="w2_13" index="41" value="1"/>
  <variable name="w3_1" index="43" value="1"/>
  <variable name="w3_2" index="44" value="1"/>
  <variable name="w3_4" index="46" value="1"/>
  <variable name="w3_9" index="51" value="1"/>
  <variable name="w3_10" index="52" value="1"/>
  <variable name="w3_13" index="55" value="1"/>
  <variable name="w4_1" index="57" value="1"/>
  <variable name="w4_2" index="58" value="1"/>
  <variable name="w4_4" index="60" value="1"/>
  <variable name="w4_9" index="65" value="1"/>
  <variable name="w4_10" index="66" value="1"/>
  <variable name="w4_13" index="69" value="1"/>
  <variable name="w6_1" index="85" value="1"/>
  <variable name="w6_2" index="86" value="1"/>
  <variable name="w6_4" index="88" value="1"/>
  <variable name="w6_9" index="93" value="1"/>
  <variable name="w6_10" index="94" value="1"/>
  <variable name="w6_13" index="97" value="1"/>
  <variable name="w8_1" index="113" value="1"/>
  <variable name="w8_2" index="114" value="1"/>
  <variable name="w8_4" index="116" value="1"/>
  <variable name="w8_9" index="121" value="1"/>
  <variable name="w8_10" index="122" value="1"/>
  <variable name="w8_13" index="125" value="1"/>
  <variable name="w11_1" index="155" value="1"/>
  <variable name="w11_2" index="156" value="1"/>
  <variable name="w11_4" index="158" value="1"/>
  <variable name="w11_9" index="163" value="1"/>
  <variable name="w11_10" index="164" value="1"/>
  <variable name="w11_13" index="167" value="1"/>
  <variable name="w12_1" index="169" value="1"/>
  <variable name="w12_2" index="170" value="1"/>
  <variable name="w12_4" index="172" value="1"/>
  <variable name="w12_9" index="177" value="1"/>
  <variable name="w12_10" index="178" value="1"/>
  <variable name="w12_13" index="181" value="1"/>
  <variable name="k0" index="196" value="1"/>
  <variable name="k1" index="197" value="1"/>
  <variable name="k2" index="198" value="1"/>
  <variable name="k3" index="199" value="1"/>
  <variable name="k4" index="200" value="1"/>
  <variable name="k6" index="202" value="1"/>
  <variable name="k8" index="204" value="1"/>
  <variable name="k11" index="207" value="1"/>
  <variable name="k12" index="208" value="1"/>
  <variable name="u1" index="211" value="1"/>
  <variable name="u2" index="212" value="1"/>
  <variable name="u4" index="214" value="1"/>
  <variable name="u9" index="219" value="1"/>
  <variable name="u10" index="220" value="1"/>
  <variable name="u13" index="223" value="1"/>
  <variable name="x0_183" index="407" value="1"/>
  <variable name="x1_107" index="531" value="1"/>
  <variable name="x2_11" index="635" value="1"/>
  <variable name="x3_182" index="1006" value="1"/>
  <variable name="x4_199" index="1223" value="1"/>
  <variable name="x5_180" index="1404" value="1"/>
  <variable name="x6_177" index="1601" value="1"/>
  <variable name="x7_1" index="1625" value="1"/>
  <variable name="x8_40" index="1864" value="1"/>
  <variable name="x9_83" index="2107" value="1"/>
  <variable name="x10_166" index="2390" value="1"/>
  <variable name="x11_54" index="2478" value="1"/>
  <variable name="x12_44" index="2668" value="1"/>
  <variable name="x13_41" index="2865" value="1"/>
  <variable name="x14_104" index="3128" value="1"/>
  <variable name="x15_123" index="3347" value="1"/>
  <variable name="x16_81" index="3505" value="1"/>
  <variable name="x17_17" index="3641" value="1"/>
  <variable name="x18_85" index="3909" value="1"/>
  <variable name="x19_88" index="4112" value="1"/>
  <variable name="x20_122" index="4346" value="1"/>
  <variable name="x21_159" index="4583" value="1"/>
  <variable name="x22_170" index="4794" value="1"/>
  <variable name="x23_15" index="4839" value="1"/>
  <variable name="x24_141" index="5165" value="1"/>
  <variable name="x25_61" index="5285" value="1"/>
  <variable name="x26_119" index="5543" value="1"/>
  <variable name="x27_187" index="5811" value="1"/>
  <variable name="x28_188" index="6012" value="1"/>
  <variable name="x29_142" index="6166" value="1"/>
  <variable name="x30_22" index="6246" value="1"/>
  <variable name="x31_63" index="6487" value="1"/>
  <variable name="x32_94" index="6718" value="1"/>
  <variable name="x33_58" index="6882" value="1"/>
  <variable name="x34_174" index="7198" value="1"/>
  <variable name="x35_161" index="7385" value="1"/>
  <variable name="x36_128" index="7552" value="1"/>
  <variable name="x37_121" index="7745" value="1"/>
  <variable name="x38_151" index="7975" value="1"/>
  <variable name="x39_7" index="8031" value="1"/>
  <variable name="x40_186" index="8410" value="1"/>
  <variable name="x41_169" index="8593" value="1"/>
  <variable name="x42_56" index="8680" value="1"/>
  <variable name="x43_93" index="8917" value="1"/>
  <variable name="x44_35" index="9059" value="1"/>
  <variable name="x45_90" index="9314" value="1"/>
  <variable name="x46_70" index="9494" value="1"/>
  <variable name="x47_101" index="9725" value="1"/>
  <variable name="x48_162" index="9986" value="1"/>
  <variable name="x49_167" index="10191" value="1"/>
  <variable name="x50_152" index="10376" value="1"/>
  <variable name="x51_34" index="10458" value="1"/>
  <variable name="x52_48" index="10672" value="1"/>
  <variable name="x53_191" index="11015" value="1"/>
  <variable name="x54_47" index="11071" value="1"/>
  <variable name="x55_23" index="11247" value="1"/>
  <variable name="x56_71" index="11495" value="1"/>
  <variable name="x57_28" index="11652" value="1"/>
  <variable name="x58_52" index="11876" value="1"/>
  <variable name="x59_9" index="12033" value="1"/>
  <variable name="x60_67" index="12291" value="1"/>
  <variable name="x61_149" index="12573" value="1"/>
  <variable name="x62_135" index="12759" value="1"/>
  <variable name="x63_144" index="12968" value="1"/>
  <variable name="x64_145" index="13169" value="1"/>
  <variable name="x65_110" index="13334" value="1"/>
  <variable name="x66_164" index="13588" value="1"/>
  <variable name="x67_25" index="13649" value="1"/>
  <variable name="x68_32" index="13856" value="1"/>
  <variable name="x69_62" index="14086" value="1"/>
  <variable name="x70_189" index="14413" value="1"/>
  <variable name="x71_0" index="14424" value="1"/>
  <variable name="x72_163" index="14787" value="1"/>
  <variable name="x73_13" index="14837" value="1"/>
  <variable name="x74_8" index="15032" value="1"/>
  <variable name="x75_76" index="15300" value="1"/>
  <variable name="x76_43" index="15467" value="1"/>
  <variable name="x77_157" index="15781" value="1"/>
  <variable name="x78_184" index="16008" value="1"/>
  <variable name="x79_84" index="16108" value="1"/>
  <variable name="x80_29" index="16253" value="1"/>
  <variable name="x81_86" index="16510" value="1"/>
  <variable name="x82_111" index="16735" value="1"/>
  <variable name="x83_136" index="16960" value="1"/>
  <variable name="x84_36" index="17060" value="1"/>
  <variable name="x85_14" index="17238" value="1"/>
  <variable name="x86_155" index="17579" value="1"/>
  <variable name="x87_178" index="17802" value="1"/>
  <variable name="x88_197" index="18021" value="1"/>
  <variable name="x89_190" index="18214" value="1"/>
  <variable name="x90_60" index="18284" value="1"/>
  <variable name="x91_194" index="18618" value="1"/>
  <variable name="x92_2" index="18626" value="1"/>
  <variable name="x93_131" index="18955" value="1"/>
  <variable name="x94_103" index="19127" value="1"/>
  <variable name="x95_39" index="19263" value="1"/>
  <variable name="x96_59" index="19483" value="1"/>
  <variable name="x97_95" index="19719" value="1"/>
  <variable name="x98_120" index="19944" value="1"/>
  <variable name="x99_79" index="20103" value="1"/>
  <variable name="x100_154" index="20378" value="1"/>
  <variable name="x101_195" index="20619" value="1"/>
  <variable name="x102_31" index="20655" value="1"/>
  <variable name="x103_82" index="20906" value="1"/>
  <variable name="x104_80" index="21104" value="1"/>
  <variable name="x105_146" index="21370" value="1"/>
  <variable name="x106_108" index="21532" value="1"/>
  <variable name="x107_78" index="21702" value="1"/>
  <variable name="x108_105" index="21929" value="1"/>
  <variable name="x109_179" index="22203" value="1"/>
  <variable name="x110_198" index="22422" value="1"/>
  <variable name="x111_27" index="22451" value="1"/>
  <variable name="x112_53" index="22677" value="1"/>
  <variable name="x113_12" index="22836" value="1"/>
  <variable name="x114_193" index="23217" value="1"/>
  <variable name="x115_124" index="23348" value="1"/>
  <variable name="x116_21" index="23445" value="1"/>
  <variable name="x117_97" index="23721" value="1"/>
  <variable name="x118_113" index="23937" value="1"/>
  <variable name="x119_74" index="24098" value="1"/>
  <variable name="x120_116" index="24340" value="1"/>
  <variable name="x121_196" index="24620" value="1"/>
  <variable name="x122_137" index="24761" value="1"/>
  <variable name="x123_165" index="24989" value="1"/>
  <variable name="x124_171" index="25195" value="1"/>
  <variable name="x125_117" index="25341" value="1"/>
  <variable name="x126_106" index="25530" value="1"/>
  <variable name="x127_158" index="25782" value="1"/>
  <variable name="x128_127" index="25951" value="1"/>
  <variable name="x129_140" index="26164" value="1"/>
  <variable name="x130_42" index="26266" value="1"/>
  <variable name="x131_100" index="26524" value="1"/>
  <variable name="x132_46" index="26670" value="1"/>
  <variable name="x133_87" index="26911" value="1"/>
  <variable name="x134_150" index="27174" value="1"/>
  <variable name="x135_172" index="27396" value="1"/>
  <variable name="x136_181" index="27605" value="1"/>
  <variable name="x137_99" index="27723" value="1"/>
  <variable name="x138_115" index="27939" value="1"/>
  <variable name="x139_139" index="28163" value="1"/>
  <variable name="x140_156" index="28380" value="1"/>
  <variable name="x141_4" index="28428" value="1"/>
  <variable name="x142_175" index="28799" value="1"/>
  <variable name="x143_18" index="28842" value="1"/>
  <variable name="x144_72" index="29096" value="1"/>
  <variable name="x145_138" index="29362" value="1"/>
  <variable name="x146_114" index="29538" value="1"/>
  <variable name="x147_91" index="29715" value="1"/>
  <variable name="x148_92" index="29916" value="1"/>
  <variable name="x149_69" index="30093" value="1"/>
  <variable name="x150_73" index="30297" value="1"/>
  <variable name="x151_57" index="30481" value="1"/>
  <variable name="x152_26" index="30650" value="1"/>
  <variable name="x153_102" index="30926" value="1"/>
  <variable name="x154_192" index="31216" value="1"/>
  <variable name="x155_126" index="31350" value="1"/>
  <variable name="x156_19" index="31443" value="1"/>
  <variable name="x157_125" index="31749" value="1"/>
  <variable name="x158_64" index="31888" value="1"/>
  <variable name="x159_134" index="32158" value="1"/>
  <variable name="x160_153" index="32377" value="1"/>
  <variable name="x161_66" index="32490" value="1"/>
  <variable name="x162_118" index="32742" value="1"/>
  <variable name="x163_148" index="32972" value="1"/>
  <variable name="x164_65" index="33089" value="1"/>
  <variable name="x165_45" index="33269" value="1"/>
  <variable name="x166_3" index="33427" value="1"/>
  <variable name="x167_5" index="33629" value="1"/>
  <variable name="x168_50" index="33874" value="1"/>
  <variable name="x169_173" index="34197" value="1"/>
  <variable name="x170_75" index="34299" value="1"/>
  <variable name="x171_98" index="34522" value="1"/>
  <variable name="x172_33" index="34657" value="1"/>
  <variable name="x173_24" index="34848" value="1"/>
  <variable name="x174_10" index="35034" value="1"/>
  <variable name="x175_55" index="35279" value="1"/>
  <variable name="x176_37" index="35461" value="1"/>
  <variable name="x177_132" index="35756" value="1"/>
  <variable name="x178_30" index="35854" value="1"/>
  <variable name="x179_160" index="36184" value="1"/>
  <variable name="x180_96" index="36320" value="1"/>
  <variable name="x181_130" index="36554" value="1"/>
  <variable name="x182_168" index="36792" value="1"/>
  <variable name="x183_49" index="36873" value="1"/>
  <variable name="x184_51" index="37075" value="1"/>
  <variable name="x185_143" index="37367" value="1"/>
  <variable name="x186_147" index="37571" value="1"/>
  <variable name="x187_133" index="37757" value="1"/>
  <variable name="x188_6" index="37830" value="1"/>
  <variable name="x189_109" index="38133" value="1"/>
  <variable name="x190_185" index="38409" value="1"/>
  <variable name="x191_89" index="38513" value="1"/>
  <variable name="x192_129" index="38753" value="1"/>
  <variable name="x193_176" index="39000" value="1"/>
  <variable name="x194_112" index="39136" value="1"/>
  <variable name="x195_77" index="39301" value="1"/>
  <variable name="x196_38" index="39462" value="1"/>
  <variable name="x197_20" index="39644" value="1"/>
  <variable name="x198_68" index="39892" value="1"/>
  <variable name="x199_16" index="40040" value="1"/>
 </variables>
</CPLEXSolution>
